/*********************************************
    * Lab01 - FCD_FCR
    * Author: Coso
    * Creation Date: Mar, 2019
    *********************************************/
instance_name = "small_instance_02_FCD_FCR";

d = 2;
r = 3;

SCj = [140 121];
Fj = [3001, 3342];
Dk = [29 74 30];

Cjk = [[32 45 51]
 [41 50 61]];
Fjk = [[579 383 500]
 [603 351 578]];
